500
1000
300
299
299
299
298
298
298
298
298
298
297
297
296
296
295
295
295
295
295
295
295
294
294
293
293
292
292
292
292
291
291
290
289
288
288
288
287
287
287
287
286
285
285
285
284
284
282
282
281
280
280
279
279
278
278
277
277
277
277
277
276
276
276
275
274
274
274
274
274
274
274
273
273
272
272
271
271
271
271
271
270
270
270
270
269
269
269
268
267
267
266
266
266
263
263
262
262
262
261
260
260
260
260
260
259
258
258
258
258
257
257
257
257
257
256
256
256
255
255
254
254
254
254
254
254
254
253
253
253
252
252
252
251
250
250
249
249
249
248
247
247
247
247
246
246
246
245
245
245
245
244
244
243
243
242
242
241
241
241
241
241
240
239
239
238
238
238
238
237
236
236
236
236
236
235
235
234
234
234
234
233
233
232
231
231
231
231
230
229
229
229
228
228
227
227
227
226
225
225
225
225
225
223
223
222
221
220
220
220
220
220
220
220
219
218
218
218
218
217
217
217
216
216
215
215
214
214
214
213
213
211
211
210
210
210
210
209
209
208
207
207
207
207
205
204
204
204
204
203
203
202
201
201
200
200
200
199
199
198
198
198
197
197
196
196
196
196
196
195
195
195
195
194
193
193
193
193
193
193
193
193
193
193
191
191
191
191
190
190
188
188
188
187
186
186
186
185
185
185
185
184
184
184
183
183
183
182
182
181
180
180
179
179
179
179
179
178
178
178
178
177
176
176
175
175
175
174
174
173
173
173
173
171
170
169
168
166
166
165
165
164
164
164
163
163
162
161
161
161
161
160
159
158
158
157
157
157
157
156
156
156
155
155
154
153
153
153
153
152
152
152
151
151
151
150
150
150
150
149
149
149
148
148
148
148
148
147
147
147
146
146
145
145
144
144
144
144
142
142
142
142
141
141
141
141
140
140
139
139
139
139
137
137
136
136
135
135
135
135
135
135
135
135
134
134
134
132
132
132
132
130
130
129
128
127
127
127
126
126
126
126
125
125
125
125
124
124
122
122
122
121
121
120
120
120
120
120
119
119
119
118
118
117
116
116
115
114
114
113
113
112
111
111
111
111
110
110
109
109
109
109
109
109
108
108
108
107
107
107
106
106
105
105
105
105
105
104
103
102
102
